NAME : R1_2_1
TYPE : VRPSPD
DIMENSION : 201
VEHICLES : 23
CAPACITY : 200
DISTANCE : 999999
SCALE : 1000
EDGE_WEIGHT_TYPE : EXACT_2D
NODE_COORD_SECTION
1 70 70
2 107 77
3 109 139
4 120 22
5 48 47
6 116 22
7 12 138
8 86 40
9 121 124
10 61 57
11 40 113
12 129 24
13 12 84
14 44 116
15 102 52
16 41 36
17 132 133
18 104 139
19 104 54
20 22 104
21 46 133
22 138 78
23 16 92
24 18 104
25 66 82
26 107 25
27 139 73
28 101 0
29 90 14
30 20 69
31 64 132
32 115 82
33 54 106
34 30 21
35 63 129
36 82 100
37 108 30
38 37 73
39 50 112
40 47 83
41 92 138
42 81 36
43 115 124
44 13 48
45 113 35
46 60 84
47 44 58
48 8 87
49 116 105
50 117 4
51 140 42
52 139 68
53 58 95
54 103 119
55 32 52
56 89 39
57 54 41
58 39 100
59 5 99
60 67 96
61 73 96
62 112 13
63 55 127
64 103 44
65 97 12
66 16 62
67 140 36
68 90 44
69 113 32
70 104 73
71 36 38
72 15 4
73 54 33
74 70 94
75 35 90
76 88 29
77 109 131
78 10 111
79 138 105
80 113 45
81 92 22
82 85 75
83 10 86
84 51 92
85 46 112
86 12 48
87 137 7
88 79 80
89 69 116
90 28 62
91 50 106
92 83 38
93 120 102
94 65 0
95 4 71
96 19 120
97 18 70
98 58 80
99 49 140
100 69 115
101 36 124
102 84 88
103 17 138
104 103 82
105 38 122
106 70 83
107 29 60
108 61 34
109 54 78
110 83 12
111 34 72
112 80 103
113 78 111
114 116 83
115 29 94
116 137 137
117 110 28
118 116 13
119 59 115
120 71 70
121 120 60
122 85 111
123 121 123
124 137 84
125 103 86
126 30 57
127 139 72
128 2 106
129 64 138
130 23 39
131 126 23
132 138 24
133 78 63
134 98 4
135 103 77
136 58 11
137 26 130
138 104 32
139 55 102
140 137 101
141 65 80
142 26 50
143 56 139
144 119 73
145 9 19
146 82 103
147 107 102
148 60 23
149 123 84
150 79 72
151 99 34
152 27 46
153 64 115
154 32 6
155 86 80
156 81 57
157 135 65
158 66 40
159 120 47
160 37 125
161 120 14
162 114 109
163 137 127
164 37 138
165 36 54
166 109 78
167 34 20
168 39 13
169 137 96
170 110 99
171 136 123
172 133 130
173 120 52
174 33 117
175 37 79
176 60 54
177 125 68
178 13 129
179 20 106
180 15 9
181 106 10
182 100 99
183 89 24
184 67 120
185 42 29
186 117 92
187 15 18
188 139 110
189 44 36
190 8 138
191 33 0
192 4 44
193 97 115
194 23 19
195 56 129
196 105 2
197 66 91
198 93 61
199 27 104
200 69 6
201 95 135
PICKUP_AND_DELIVERY_SECTION
1 0 0 10000000 0 0 0
2 0 0 10000000 0 5 34
3 0 0 10000000 0 22 8
4 0 0 10000000 0 10 39
5 0 0 10000000 0 41 19
6 0 0 10000000 0 10 32
7 0 0 10000000 0 4 14
8 0 0 10000000 0 4 22
9 0 0 10000000 0 15 21
10 0 0 10000000 0 23 35
11 0 0 10000000 0 4 23
12 0 0 10000000 0 4 18
13 0 0 10000000 0 9 16
14 0 0 10000000 0 33 27
15 0 0 10000000 0 19 15
16 0 0 10000000 0 4 13
17 0 0 10000000 0 10 24
18 0 0 10000000 0 9 29
19 0 0 10000000 0 30 13
20 0 0 10000000 0 3 11
21 0 0 10000000 0 43 7
22 0 0 10000000 0 1 43
23 0 0 10000000 0 15 10
24 0 0 10000000 0 2 18
25 0 0 10000000 0 5 27
26 0 0 10000000 0 23 13
27 0 0 10000000 0 43 10
28 0 0 10000000 0 19 9
29 0 0 10000000 0 40 31
30 0 0 10000000 0 19 13
31 0 0 10000000 0 8 8
32 0 0 10000000 0 30 30
33 0 0 10000000 0 18 9
34 0 0 10000000 0 39 12
35 0 0 10000000 0 12 7
36 0 0 10000000 0 41 18
37 0 0 10000000 0 30 18
38 0 0 10000000 0 37 33
39 0 0 10000000 0 28 18
40 0 0 10000000 0 43 1
41 0 0 10000000 0 43 12
42 0 0 10000000 0 38 17
43 0 0 10000000 0 19 11
44 0 0 10000000 0 12 15
45 0 0 10000000 0 30 9
46 0 0 10000000 0 40 23
47 0 0 10000000 0 39 30
48 0 0 10000000 0 29 17
49 0 0 10000000 0 25 23
50 0 0 10000000 0 15 9
51 0 0 10000000 0 35 13
52 0 0 10000000 0 20 25
53 0 0 10000000 0 37 35
54 0 0 10000000 0 39 18
55 0 0 10000000 0 9 32
56 0 0 10000000 0 33 23
57 0 0 10000000 0 12 9
58 0 0 10000000 0 12 31
59 0 0 10000000 0 11 24
60 0 0 10000000 0 3 26
61 0 0 10000000 0 18 9
62 0 0 10000000 0 28 27
63 0 0 10000000 0 12 17
64 0 0 10000000 0 41 12
65 0 0 10000000 0 7 10
66 0 0 10000000 0 28 15
67 0 0 10000000 0 3 1
68 0 0 10000000 0 3 6
69 0 0 10000000 0 33 36
70 0 0 10000000 0 42 17
71 0 0 10000000 0 4 5
72 0 0 10000000 0 29 23
73 0 0 10000000 0 1 20
74 0 0 10000000 0 34 32
75 0 0 10000000 0 10 20
76 0 0 10000000 0 33 33
77 0 0 10000000 0 21 16
78 0 0 10000000 0 18 21
79 0 0 10000000 0 8 24
80 0 0 10000000 0 5 4
81 0 0 10000000 0 41 18
82 0 0 10000000 0 33 37
83 0 0 10000000 0 19 14
84 0 0 10000000 0 12 9
85 0 0 10000000 0 10 10
86 0 0 10000000 0 5 4
87 0 0 10000000 0 33 40
88 0 0 10000000 0 38 4
89 0 0 10000000 0 9 26
90 0 0 10000000 0 24 23
91 0 0 10000000 0 21 25
92 0 0 10000000 0 1 22
93 0 0 10000000 0 35 18
94 0 0 10000000 0 9 20
95 0 0 10000000 0 2 19
96 0 0 10000000 0 28 16
97 0 0 10000000 0 43 26
98 0 0 10000000 0 43 18
99 0 0 10000000 0 16 3
100 0 0 10000000 0 40 20
101 0 0 10000000 0 16 34
102 0 0 10000000 0 16 16
103 0 0 10000000 0 20 8
104 0 0 10000000 0 20 27
105 0 0 10000000 0 21 13
106 0 0 10000000 0 20 23
107 0 0 10000000 0 39 14
108 0 0 10000000 0 18 7
109 0 0 10000000 0 23 11
110 0 0 10000000 0 33 29
111 0 0 10000000 0 11 21
112 0 0 10000000 0 1 15
113 0 0 10000000 0 26 22
114 0 0 10000000 0 30 30
115 0 0 10000000 0 35 1
116 0 0 10000000 0 13 27
117 0 0 10000000 0 28 20
118 0 0 10000000 0 15 5
119 0 0 10000000 0 29 26
120 0 0 10000000 0 26 9
121 0 0 10000000 0 10 18
122 0 0 10000000 0 37 25
123 0 0 10000000 0 24 9
124 0 0 10000000 0 21 41
125 0 0 10000000 0 7 19
126 0 0 10000000 0 14 20
127 0 0 10000000 0 31 23
128 0 0 10000000 0 42 16
129 0 0 10000000 0 9 15
130 0 0 10000000 0 4 20
131 0 0 10000000 0 26 13
132 0 0 10000000 0 15 12
133 0 0 10000000 0 38 19
134 0 0 10000000 0 3 20
135 0 0 10000000 0 22 17
136 0 0 10000000 0 38 9
137 0 0 10000000 0 20 20
138 0 0 10000000 0 9 18
139 0 0 10000000 0 9 4
140 0 0 10000000 0 4 12
141 0 0 10000000 0 21 20
142 0 0 10000000 0 13 7
143 0 0 10000000 0 7 18
144 0 0 10000000 0 28 15
145 0 0 10000000 0 14 10
146 0 0 10000000 0 37 15
147 0 0 10000000 0 42 12
148 0 0 10000000 0 36 16
149 0 0 10000000 0 42 13
150 0 0 10000000 0 23 22
151 0 0 10000000 0 10 9
152 0 0 10000000 0 14 35
153 0 0 10000000 0 31 15
154 0 0 10000000 0 34 11
155 0 0 10000000 0 30 21
156 0 0 10000000 0 22 8
157 0 0 10000000 0 15 3
158 0 0 10000000 0 42 20
159 0 0 10000000 0 30 18
160 0 0 10000000 0 35 10
161 0 0 10000000 0 23 20
162 0 0 10000000 0 33 16
163 0 0 10000000 0 43 28
164 0 0 10000000 0 26 5
165 0 0 10000000 0 3 15
166 0 0 10000000 0 21 21
167 0 0 10000000 0 26 15
168 0 0 10000000 0 30 20
169 0 0 10000000 0 2 9
170 0 0 10000000 0 17 21
171 0 0 10000000 0 17 31
172 0 0 10000000 0 28 13
173 0 0 10000000 0 35 20
174 0 0 10000000 0 8 20
175 0 0 10000000 0 7 5
176 0 0 10000000 0 43 3
177 0 0 10000000 0 16 20
178 0 0 10000000 0 23 25
179 0 0 10000000 0 41 24
180 0 0 10000000 0 28 2
181 0 0 10000000 0 12 13
182 0 0 10000000 0 2 17
183 0 0 10000000 0 17 15
184 0 0 10000000 0 28 5
185 0 0 10000000 0 42 12
186 0 0 10000000 0 42 25
187 0 0 10000000 0 25 10
188 0 0 10000000 0 8 19
189 0 0 10000000 0 40 9
190 0 0 10000000 0 1 10
191 0 0 10000000 0 24 20
192 0 0 10000000 0 32 24
193 0 0 10000000 0 13 25
194 0 0 10000000 0 16 16
195 0 0 10000000 0 33 21
196 0 0 10000000 0 17 1
197 0 0 10000000 0 37 16
198 0 0 10000000 0 16 10
199 0 0 10000000 0 33 1
200 0 0 10000000 0 37 8
201 0 0 10000000 0 16 27
DEPOT_SECTION
1 
-1
EOF
